VACCINE = Vaccine(1..2);
m = 24;
age = [SENIOR, ANCIENT, YOUTH, YOUTH, ANCIENT, AGED, SENIOR, BABY, SENIOR, ANCIENT, SENIOR, YOUTH, ANCIENT, SENIOR, YOUTH, ANCIENT, ADULT, AGED, CHILD, CHILD, AGED, BABY, AGED, ANCIENT];
gender = [FEMALE, MALE, OTHER, FEMALE, MALE, MALE, FEMALE, FEMALE, FEMALE, OTHER, OTHER, OTHER, MALE, MALE, FEMALE, FEMALE, FEMALE, OTHER, MALE, FEMALE, MALE, MALE, FEMALE, MALE];
health = [GOOD, GOOD, COMPROMISED, GOOD, COMPROMISED, COMPROMISED, COMPROMISED, POOR, COMPROMISED, COMPROMISED, POOR, POOR, GOOD, COMPROMISED, POOR, POOR, GOOD, POOR, POOR, COMPROMISED, GOOD, GOOD, GOOD, POOR];
exposure = [HIGH, HIGH, EXTREME, LOW, LOW, HIGH, AVERAGE, EXTREME, EXTREME, AVERAGE, AVERAGE, AVERAGE, AVERAGE, LOW, HIGH, EXTREME, EXTREME, LOW, EXTREME, EXTREME, AVERAGE, LOW, HIGH, LOW];
size = [4, 6, 3, 4, 4, 8, 3, 6, 7, 8, 4, 7, 3, 3, 8, 5, 6, 5, 3, 4, 4, 7, 6, 5];
minsize = 3;
age_group_min = [1, 1, 0, 0, 1, 1, 1];
age_group_max = [8, 17, 14, 9, 14, 15, 22];
max_people_diff = 57;
max_share_vaccines = 2;
health_information = {5, 15, 24};
exposure_information = {2, 3, 17, 18};